pair_coeff 1 1 ${E_rep}  0.000 
pair_coeff 1 2 ${E_rep}  3.955 
pair_coeff 1 3 ${E_rep}  2.988 
pair_coeff 1 4 ${E_rep}  3.297 
pair_coeff 1 5 ${E_rep}  3.537 
pair_coeff 1 6 ${E_rep}  2.893 
pair_coeff 1 7 ${E_rep}  2.927 
pair_coeff 1 8 ${E_rep}  3.125 
pair_coeff 1 9 ${E_rep}  3.821 
pair_coeff 1 10 ${E_rep}  3.223 
pair_coeff 1 11 ${E_rep}  0.000 
pair_coeff 1 12 ${E_rep}  0.000 
pair_coeff 1 13 ${E_rep}  0.000 
pair_coeff 1 14 ${E_rep}  3.651 
pair_coeff 1 15 ${E_rep}  0.000 
pair_coeff 2 2 ${E_rep}  0.000 
pair_coeff 2 3 ${E_rep}  1.989 
pair_coeff 2 4 ${E_rep}  0.724 
pair_coeff 2 5 ${E_rep}  0.000 
pair_coeff 2 6 ${E_rep}  0.000 
pair_coeff 2 7 ${E_rep}  0.000 
pair_coeff 2 8 ${E_rep}  0.000 
pair_coeff 2 9 ${E_rep}  0.000 
pair_coeff 2 10 ${E_rep}  0.992 
pair_coeff 2 11 ${E_rep}  0.000 
pair_coeff 2 12 ${E_rep}  0.000 
pair_coeff 2 13 ${E_rep}  0.000 
pair_coeff 2 14 ${E_rep}  0.000 
pair_coeff 2 15 ${E_rep}  0.000 
pair_coeff 3 3 ${E_rep}  0.000 
pair_coeff 3 4 ${E_rep}  2.034 
pair_coeff 3 5 ${E_rep}  0.000 
pair_coeff 3 6 ${E_rep}  0.000 
pair_coeff 3 7 ${E_rep}  0.000 
pair_coeff 3 8 ${E_rep}  0.000 
pair_coeff 3 9 ${E_rep}  0.000 
pair_coeff 3 10 ${E_rep}  0.000 
pair_coeff 3 11 ${E_rep}  0.000 
pair_coeff 3 12 ${E_rep}  0.000 
pair_coeff 3 13 ${E_rep}  0.000 
pair_coeff 3 14 ${E_rep}  0.000 
pair_coeff 3 15 ${E_rep}  0.000 
pair_coeff 4 4 ${E_rep}  0.000 
pair_coeff 4 5 ${E_rep}  0.000 
pair_coeff 4 6 ${E_rep}  0.000 
pair_coeff 4 7 ${E_rep}  0.000 
pair_coeff 4 8 ${E_rep}  0.000 
pair_coeff 4 9 ${E_rep}  0.000 
pair_coeff 4 10 ${E_rep}  0.000 
pair_coeff 4 11 ${E_rep}  3.013 
pair_coeff 4 12 ${E_rep}  0.000 
pair_coeff 4 13 ${E_rep}  0.000 
pair_coeff 4 14 ${E_rep}  0.000 
pair_coeff 4 15 ${E_rep}  0.000 
pair_coeff 5 5 ${E_rep}  0.000 
pair_coeff 5 6 ${E_rep}  3.904 
pair_coeff 5 7 ${E_rep} -0.549 
pair_coeff 5 8 ${E_rep}  0.479 
pair_coeff 5 9 ${E_rep}  0.000 
pair_coeff 5 10 ${E_rep}  0.000 
pair_coeff 5 11 ${E_rep}  0.000 
pair_coeff 5 12 ${E_rep}  2.291 
pair_coeff 5 13 ${E_rep}  0.000 
pair_coeff 5 14 ${E_rep}  0.000 
pair_coeff 5 15 ${E_rep}  0.000 
pair_coeff 6 6 ${E_rep}  0.000 
pair_coeff 6 7 ${E_rep}  0.000 
pair_coeff 6 8 ${E_rep}  4.236 
pair_coeff 6 9 ${E_rep}  0.000 
pair_coeff 6 10 ${E_rep}  0.000 
pair_coeff 6 11 ${E_rep}  0.000 
pair_coeff 6 12 ${E_rep}  0.000 
pair_coeff 6 13 ${E_rep}  0.000 
pair_coeff 6 14 ${E_rep}  0.000 
pair_coeff 6 15 ${E_rep}  0.000 
pair_coeff 7 7 ${E_rep}  0.000 
pair_coeff 7 8 ${E_rep}  2.682 
pair_coeff 7 9 ${E_rep}  0.000 
pair_coeff 7 10 ${E_rep}  0.000 
pair_coeff 7 11 ${E_rep}  0.000 
pair_coeff 7 12 ${E_rep}  0.000 
pair_coeff 7 13 ${E_rep}  0.000 
pair_coeff 7 14 ${E_rep}  0.000 
pair_coeff 7 15 ${E_rep}  0.000 
pair_coeff 8 8 ${E_rep}  0.000 
pair_coeff 8 9 ${E_rep}  0.000 
pair_coeff 8 10 ${E_rep}  0.000 
pair_coeff 8 11 ${E_rep}  0.000 
pair_coeff 8 12 ${E_rep}  2.621 
pair_coeff 8 13 ${E_rep}  0.000 
pair_coeff 8 14 ${E_rep}  0.000 
pair_coeff 8 15 ${E_rep}  0.000 
pair_coeff 9 9 ${E_rep}  0.000 
pair_coeff 9 10 ${E_rep}  0.118 
pair_coeff 9 11 ${E_rep}  0.000 
pair_coeff 9 12 ${E_rep}  0.000 
pair_coeff 9 13 ${E_rep}  3.149 
pair_coeff 9 14 ${E_rep}  0.000 
pair_coeff 9 15 ${E_rep}  0.000 
pair_coeff 10 10 ${E_rep}  0.000 
pair_coeff 10 11 ${E_rep}  0.000 
pair_coeff 10 12 ${E_rep}  0.000 
pair_coeff 10 13 ${E_rep}  3.086 
pair_coeff 10 14 ${E_rep}  0.000 
pair_coeff 10 15 ${E_rep}  0.000 
pair_coeff 11 11 ${E_rep}  0.000 
pair_coeff 11 12 ${E_rep}  0.000 
pair_coeff 11 13 ${E_rep}  0.000 
pair_coeff 11 14 ${E_rep}  4.059 
pair_coeff 11 15 ${E_rep}  0.000 
pair_coeff 12 12 ${E_rep}  0.000 
pair_coeff 12 13 ${E_rep}  0.000 
pair_coeff 12 14 ${E_rep}  0.000 
pair_coeff 12 15 ${E_rep}  0.000 
pair_coeff 13 13 ${E_rep}  0.000 
pair_coeff 13 14 ${E_rep}  0.000 
pair_coeff 13 15 ${E_rep}  2.457 
pair_coeff 14 14 ${E_rep}  0.000 
pair_coeff 14 15 ${E_rep}  0.000 
pair_coeff 15 15 ${E_rep}  0.000 
